Problem
 unnamed
Minimize
 OBJECTRW:  - 40 C0000001 - 50 C0000002 - 50 C0000003 - 40 C0000004
Subject To
 R0000001:   C0000001 +  C0000002 = 1
 R0000002:   C0000003 +  C0000004 = 1
 R0000003:   C0000001 +  C0000003 = 1
 R0000004:   C0000002 +  C0000004 = 1
Integer
 C0000001 C0000002 C0000003 C0000004
End
